33D32945 STP File, STP Format Version 1.0

SECTION Comment
Name    "i160-243"
Creator "Cees Duin"
Remark  "Incidence graph"
END

SECTION Graph
Nodes 160
Edges 2544
E 1 6 296
E 1 13 301
E 1 22 298
E 1 28 211
E 1 36 200
E 1 37 195
E 1 43 203
E 1 49 197
E 1 65 193
E 1 70 201
E 1 76 201
E 1 86 201
E 1 88 197
E 1 89 197
E 1 91 201
E 1 103 192
E 1 106 202
E 1 109 192
E 1 117 201
E 1 118 200
E 1 119 199
E 1 125 199
E 1 126 206
E 1 139 200
E 1 142 194
E 1 143 195
E 1 144 196
E 1 147 193
E 1 148 196
E 1 151 199
E 1 154 197
E 1 156 193
E 1 158 207
E 2 7 296
E 2 9 300
E 2 10 297
E 2 23 296
E 2 29 198
E 2 31 200
E 2 32 206
E 2 33 205
E 2 39 206
E 2 41 197
E 2 59 194
E 2 63 199
E 2 68 200
E 2 88 196
E 2 100 205
E 2 105 191
E 2 121 193
E 2 125 196
E 2 129 199
E 2 133 196
E 2 138 190
E 2 140 203
E 2 146 188
E 2 147 198
E 2 149 202
E 2 152 194
E 2 153 191
E 2 155 198
E 3 4 296
E 3 6 302
E 3 10 296
E 3 13 290
E 3 17 298
E 3 43 193
E 3 44 210
E 3 50 202
E 3 54 195
E 3 55 199
E 3 59 196
E 3 61 199
E 3 62 194
E 3 67 197
E 3 68 208
E 3 77 189
E 3 80 204
E 3 85 198
E 3 87 201
E 3 102 195
E 3 104 204
E 3 108 199
E 3 112 196
E 3 115 198
E 3 121 206
E 3 122 204
E 3 124 209
E 3 125 197
E 3 130 209
E 3 133 191
E 3 135 200
E 3 148 203
E 3 157 200
E 3 158 205
E 4 10 311
E 4 13 291
E 4 21 304
E 4 25 199
E 4 30 206
E 4 40 201
E 4 64 205
E 4 65 202
E 4 74 202
E 4 78 194
E 4 79 200
E 4 83 196
E 4 84 206
E 4 89 195
E 4 91 207
E 4 92 203
E 4 93 195
E 4 108 198
E 4 110 204
E 4 113 206
E 4 125 208
E 4 127 205
E 4 128 195
E 4 131 197
E 4 141 201
E 4 147 204
E 4 149 198
E 4 152 200
E 4 154 199
E 4 159 206
E 5 24 304
E 5 29 200
E 5 31 204
E 5 35 196
E 5 37 200
E 5 41 208
E 5 64 198
E 5 65 197
E 5 69 200
E 5 72 201
E 5 73 199
E 5 74 196
E 5 76 200
E 5 81 195
E 5 86 202
E 5 95 203
E 5 105 200
E 5 106 201
E 5 108 195
E 5 110 198
E 5 115 202
E 5 125 197
E 5 128 201
E 5 137 200
E 5 145 200
E 5 153 204
E 5 154 201
E 6 14 303
E 6 18 303
E 6 37 197
E 6 40 189
E 6 44 201
E 6 46 194
E 6 50 194
E 6 59 195
E 6 60 193
E 6 65 204
E 6 82 202
E 6 83 205
E 6 86 197
E 6 91 198
E 6 94 204
E 6 99 202
E 6 100 196
E 6 106 201
E 6 107 192
E 6 112 204
E 6 118 203
E 6 119 195
E 6 132 194
E 6 140 200
E 6 143 198
E 6 144 197
E 6 145 189
E 6 155 196
E 6 156 207
E 6 159 200
E 7 13 301
E 7 16 298
E 7 22 300
E 7 25 191
E 7 35 197
E 7 53 191
E 7 59 209
E 7 68 197
E 7 81 200
E 7 88 207
E 7 90 201
E 7 92 194
E 7 98 197
E 7 104 199
E 7 105 195
E 7 106 210
E 7 107 197
E 7 108 195
E 7 112 194
E 7 116 197
E 7 119 203
E 7 120 198
E 7 123 204
E 7 125 198
E 7 126 196
E 7 129 202
E 7 132 200
E 7 141 202
E 7 149 200
E 7 157 201
E 7 159 198
E 8 9 298
E 8 12 299
E 8 13 305
E 8 14 290
E 8 30 201
E 8 31 198
E 8 33 196
E 8 39 191
E 8 43 196
E 8 46 202
E 8 48 204
E 8 49 198
E 8 52 191
E 8 53 198
E 8 61 192
E 8 71 204
E 8 72 195
E 8 75 202
E 8 92 202
E 8 93 190
E 8 98 200
E 8 126 195
E 8 127 200
E 8 128 197
E 8 129 204
E 8 133 194
E 8 140 200
E 8 145 202
E 8 149 193
E 8 153 193
E 8 158 198
E 9 13 296
E 9 17 309
E 9 29 196
E 9 32 201
E 9 41 200
E 9 46 197
E 9 54 198
E 9 61 204
E 9 86 197
E 9 91 205
E 9 93 196
E 9 115 207
E 9 118 200
E 9 127 197
E 9 130 199
E 9 131 203
E 9 137 201
E 9 140 200
E 9 143 197
E 9 144 200
E 9 153 202
E 9 156 200
E 9 159 196
E 9 160 190
E 10 11 304
E 10 17 299
E 10 20 287
E 10 31 202
E 10 33 213
E 10 38 199
E 10 44 209
E 10 49 196
E 10 52 202
E 10 58 202
E 10 71 207
E 10 73 200
E 10 74 205
E 10 77 194
E 10 81 197
E 10 87 205
E 10 97 196
E 10 109 201
E 10 111 199
E 10 113 199
E 10 115 195
E 10 121 202
E 10 122 198
E 10 123 207
E 10 127 188
E 10 129 199
E 10 133 205
E 10 137 201
E 10 138 201
E 10 145 209
E 10 146 196
E 10 147 195
E 10 152 198
E 10 155 193
E 11 17 299
E 11 22 298
E 11 29 193
E 11 32 196
E 11 40 201
E 11 43 185
E 11 46 197
E 11 52 203
E 11 57 196
E 11 69 195
E 11 74 198
E 11 77 204
E 11 78 202
E 11 81 187
E 11 83 200
E 11 94 202
E 11 106 206
E 11 108 195
E 11 117 202
E 11 122 204
E 11 125 196
E 11 130 190
E 11 141 196
E 11 145 189
E 12 13 303
E 12 14 294
E 12 15 307
E 12 17 299
E 12 22 300
E 12 24 300
E 12 27 194
E 12 30 199
E 12 31 205
E 12 33 202
E 12 45 202
E 12 62 194
E 12 66 196
E 12 70 197
E 12 76 202
E 12 86 203
E 12 87 204
E 12 92 199
E 12 106 195
E 12 110 197
E 12 123 198
E 12 126 197
E 12 127 201
E 12 137 198
E 12 138 197
E 12 154 211
E 12 160 200
E 13 29 209
E 13 37 200
E 13 55 201
E 13 59 199
E 13 62 202
E 13 100 197
E 13 102 204
E 13 104 202
E 13 108 193
E 13 111 190
E 13 112 206
E 13 113 210
E 13 121 196
E 13 128 197
E 13 130 206
E 13 137 193
E 13 138 198
E 13 139 198
E 13 141 197
E 13 148 190
E 13 150 206
E 13 152 194
E 14 19 305
E 14 20 303
E 14 54 206
E 14 57 203
E 14 63 198
E 14 64 205
E 14 76 196
E 14 84 195
E 14 87 198
E 14 91 201
E 14 94 192
E 14 102 201
E 14 104 191
E 14 106 194
E 14 111 195
E 14 115 198
E 14 123 200
E 14 124 202
E 14 125 202
E 14 145 196
E 14 146 200
E 14 150 206
E 14 152 198
E 14 160 201
E 15 19 292
E 15 26 203
E 15 29 201
E 15 34 203
E 15 42 205
E 15 55 203
E 15 69 203
E 15 70 197
E 15 72 197
E 15 79 201
E 15 80 209
E 15 90 199
E 15 101 202
E 15 103 207
E 15 111 192
E 15 113 205
E 15 114 194
E 15 122 201
E 15 128 200
E 15 131 198
E 15 147 200
E 15 150 197
E 15 151 196
E 15 155 204
E 15 157 199
E 16 17 307
E 16 18 302
E 16 22 303
E 16 27 199
E 16 29 198
E 16 30 205
E 16 32 198
E 16 34 205
E 16 38 198
E 16 40 205
E 16 42 199
E 16 53 204
E 16 58 191
E 16 67 198
E 16 76 197
E 16 77 204
E 16 84 197
E 16 101 201
E 16 108 200
E 16 123 201
E 16 125 208
E 16 136 197
E 16 143 193
E 16 149 196
E 16 160 198
E 17 26 209
E 17 34 200
E 17 40 203
E 17 42 200
E 17 47 193
E 17 57 192
E 17 81 202
E 17 87 202
E 17 89 206
E 17 95 201
E 17 118 209
E 17 120 205
E 17 121 193
E 17 122 196
E 17 124 211
E 17 125 199
E 17 130 200
E 17 131 200
E 17 134 207
E 17 136 200
E 17 146 204
E 17 150 192
E 17 151 202
E 17 152 196
E 17 153 197
E 17 156 194
E 17 159 199
E 17 160 190
E 18 21 305
E 18 22 294
E 18 28 200
E 18 34 189
E 18 41 200
E 18 55 202
E 18 64 202
E 18 70 205
E 18 85 203
E 18 96 196
E 18 112 202
E 18 116 196
E 18 117 195
E 18 119 191
E 18 120 207
E 18 121 209
E 18 122 196
E 18 143 200
E 18 145 204
E 18 151 196
E 18 153 199
E 19 22 302
E 19 33 202
E 19 35 199
E 19 38 206
E 19 42 202
E 19 43 195
E 19 47 196
E 19 52 203
E 19 53 193
E 19 57 195
E 19 61 200
E 19 66 208
E 19 67 194
E 19 69 198
E 19 71 202
E 19 72 208
E 19 77 202
E 19 81 201
E 19 82 200
E 19 83 198
E 19 86 191
E 19 90 196
E 19 100 204
E 19 101 194
E 19 103 201
E 19 106 199
E 19 107 198
E 19 109 198
E 19 115 197
E 19 128 199
E 19 130 202
E 19 139 193
E 19 142 202
E 19 154 199
E 19 155 204
E 19 158 207
E 20 29 191
E 20 33 195
E 20 42 202
E 20 44 206
E 20 50 205
E 20 59 204
E 20 63 195
E 20 69 200
E 20 75 202
E 20 88 198
E 20 94 195
E 20 97 196
E 20 99 191
E 20 108 190
E 20 117 192
E 20 122 203
E 20 124 199
E 20 128 206
E 20 141 200
E 20 147 195
E 20 151 207
E 20 154 200
E 20 156 200
E 20 157 201
E 21 25 197
E 21 28 191
E 21 29 199
E 21 30 201
E 21 31 198
E 21 41 199
E 21 42 207
E 21 48 197
E 21 51 189
E 21 52 208
E 21 68 198
E 21 69 200
E 21 70 191
E 21 72 199
E 21 82 201
E 21 86 203
E 21 94 200
E 21 95 197
E 21 97 200
E 21 101 202
E 21 102 208
E 21 107 199
E 21 108 204
E 21 134 195
E 21 139 199
E 21 144 198
E 21 146 206
E 21 150 194
E 21 152 199
E 21 154 199
E 22 24 299
E 22 28 202
E 22 34 193
E 22 40 198
E 22 45 200
E 22 46 200
E 22 50 205
E 22 59 198
E 22 62 202
E 22 66 198
E 22 83 194
E 22 85 192
E 22 86 199
E 22 89 198
E 22 95 210
E 22 103 203
E 22 104 205
E 22 105 194
E 22 112 196
E 22 117 205
E 22 121 197
E 22 127 208
E 22 128 196
E 22 130 202
E 22 132 198
E 22 138 199
E 22 139 200
E 22 150 197
E 22 152 201
E 22 160 196
E 23 25 203
E 23 29 193
E 23 31 208
E 23 41 197
E 23 57 205
E 23 62 203
E 23 65 199
E 23 69 200
E 23 74 198
E 23 77 196
E 23 85 206
E 23 87 208
E 23 94 194
E 23 98 193
E 23 105 198
E 23 106 193
E 23 107 200
E 23 109 200
E 23 114 199
E 23 115 195
E 23 118 204
E 23 129 194
E 23 133 196
E 23 136 201
E 23 141 192
E 23 146 194
E 23 149 200
E 23 152 200
E 24 27 201
E 24 28 197
E 24 34 202
E 24 42 203
E 24 45 199
E 24 47 192
E 24 49 195
E 24 53 207
E 24 54 195
E 24 59 197
E 24 75 194
E 24 78 203
E 24 80 213
E 24 86 207
E 24 87 201
E 24 105 209
E 24 115 199
E 24 116 203
E 24 120 205
E 24 122 200
E 24 123 202
E 24 125 187
E 24 126 203
E 24 127 198
E 24 137 201
E 24 147 199
E 24 150 193
E 24 153 199
E 24 156 191
E 24 158 210
E 24 160 200
E 25 30 105
E 25 33 103
E 25 34 103
E 25 37 104
E 25 40 101
E 25 43 102
E 25 44 95
E 25 45 100
E 25 49 107
E 25 67 101
E 25 69 105
E 25 71 103
E 25 73 98
E 25 83 97
E 25 97 108
E 25 100 99
E 25 101 96
E 25 102 108
E 25 115 106
E 25 116 99
E 25 118 108
E 25 123 92
E 25 126 101
E 25 148 99
E 25 150 107
E 25 151 99
E 25 157 95
E 26 29 98
E 26 36 101
E 26 37 100
E 26 39 98
E 26 41 101
E 26 45 103
E 26 49 108
E 26 51 101
E 26 62 101
E 26 84 93
E 26 89 95
E 26 93 98
E 26 95 101
E 26 97 96
E 26 98 100
E 26 100 96
E 26 104 89
E 26 107 95
E 26 113 101
E 26 125 109
E 26 129 103
E 26 130 100
E 26 131 94
E 26 132 99
E 26 140 97
E 26 141 92
E 26 142 99
E 26 145 95
E 26 147 98
E 26 150 102
E 26 152 99
E 26 158 103
E 27 28 98
E 27 30 93
E 27 32 97
E 27 41 97
E 27 44 92
E 27 52 97
E 27 53 101
E 27 58 95
E 27 59 93
E 27 72 102
E 27 79 104
E 27 80 93
E 27 81 94
E 27 83 101
E 27 93 100
E 27 104 103
E 27 105 92
E 27 111 103
E 27 112 98
E 27 114 99
E 27 119 101
E 27 124 97
E 27 125 88
E 27 130 100
E 27 131 99
E 27 134 95
E 27 141 98
E 27 153 101
E 27 156 97
E 28 36 96
E 28 46 100
E 28 52 103
E 28 57 106
E 28 58 94
E 28 65 97
E 28 67 92
E 28 76 107
E 28 77 98
E 28 86 100
E 28 87 96
E 28 88 107
E 28 91 98
E 28 94 96
E 28 105 105
E 28 116 95
E 28 118 106
E 28 122 92
E 28 123 103
E 28 138 101
E 28 141 97
E 28 143 106
E 29 32 102
E 29 36 107
E 29 43 100
E 29 45 95
E 29 47 99
E 29 54 100
E 29 72 103
E 29 73 102
E 29 83 97
E 29 85 105
E 29 94 90
E 29 97 100
E 29 100 96
E 29 102 106
E 29 105 94
E 29 113 100
E 29 121 101
E 29 132 92
E 29 140 101
E 29 147 97
E 29 148 98
E 29 151 98
E 29 155 102
E 30 37 100
E 30 39 99
E 30 40 91
E 30 42 106
E 30 44 96
E 30 46 101
E 30 62 97
E 30 64 102
E 30 74 100
E 30 86 98
E 30 90 104
E 30 92 100
E 30 100 101
E 30 105 102
E 30 111 104
E 30 121 102
E 30 129 102
E 30 135 100
E 30 143 102
E 30 148 106
E 30 150 88
E 30 154 93
E 30 156 103
E 30 157 107
E 31 33 94
E 31 61 99
E 31 62 100
E 31 64 114
E 31 67 109
E 31 70 106
E 31 76 97
E 31 93 98
E 31 96 104
E 31 99 101
E 31 102 97
E 31 103 94
E 31 105 96
E 31 110 96
E 31 111 94
E 31 117 96
E 31 119 102
E 31 128 97
E 31 130 100
E 31 143 102
E 31 144 105
E 31 145 101
E 31 151 101
E 31 152 96
E 32 37 99
E 32 38 100
E 32 43 106
E 32 48 97
E 32 54 91
E 32 57 92
E 32 65 106
E 32 67 93
E 32 68 96
E 32 71 101
E 32 72 101
E 32 84 100
E 32 86 101
E 32 90 94
E 32 92 99
E 32 109 94
E 32 110 95
E 32 113 100
E 32 114 92
E 32 115 102
E 32 130 97
E 32 141 100
E 32 143 100
E 33 36 98
E 33 38 107
E 33 42 104
E 33 43 97
E 33 52 95
E 33 54 105
E 33 55 97
E 33 56 105
E 33 58 95
E 33 59 101
E 33 61 95
E 33 62 107
E 33 64 91
E 33 67 104
E 33 68 97
E 33 71 96
E 33 72 98
E 33 73 96
E 33 78 102
E 33 80 89
E 33 86 94
E 33 91 105
E 33 95 102
E 33 96 98
E 33 97 99
E 33 100 95
E 33 101 97
E 33 105 97
E 33 110 94
E 33 113 102
E 33 123 102
E 33 125 107
E 33 127 90
E 33 128 97
E 33 129 98
E 33 131 106
E 33 134 99
E 33 153 97
E 33 156 103
E 34 37 90
E 34 38 95
E 34 50 99
E 34 53 99
E 34 54 94
E 34 59 102
E 34 60 99
E 34 62 105
E 34 63 99
E 34 70 90
E 34 72 86
E 34 76 91
E 34 96 95
E 34 112 100
E 34 120 92
E 34 145 102
E 34 150 104
E 34 152 104
E 34 158 93
E 34 159 94
E 34 160 101
E 35 40 93
E 35 44 96
E 35 45 98
E 35 49 100
E 35 55 105
E 35 64 105
E 35 81 97
E 35 82 92
E 35 84 99
E 35 85 101
E 35 109 96
E 35 119 102
E 35 120 100
E 35 121 100
E 35 132 91
E 35 135 99
E 35 144 101
E 35 145 102
E 35 150 100
E 35 153 106
E 36 38 96
E 36 39 99
E 36 40 100
E 36 42 98
E 36 45 96
E 36 48 101
E 36 50 101
E 36 51 106
E 36 53 103
E 36 57 91
E 36 58 100
E 36 62 101
E 36 66 99
E 36 70 107
E 36 74 97
E 36 86 104
E 36 88 92
E 36 92 105
E 36 99 92
E 36 107 107
E 36 119 105
E 36 125 98
E 36 126 94
E 36 132 96
E 36 144 100
E 36 146 99
E 36 148 102
E 36 151 96
E 36 152 103
E 37 50 95
E 37 55 104
E 37 56 90
E 37 58 99
E 37 60 103
E 37 65 107
E 37 67 103
E 37 70 105
E 37 76 98
E 37 81 102
E 37 84 99
E 37 85 100
E 37 87 102
E 37 92 86
E 37 103 93
E 37 111 98
E 37 112 107
E 37 118 98
E 37 119 101
E 37 120 102
E 37 122 99
E 37 132 101
E 37 133 105
E 37 140 95
E 37 141 99
E 37 142 99
E 37 143 93
E 37 150 95
E 38 51 91
E 38 53 99
E 38 55 99
E 38 62 101
E 38 63 101
E 38 67 87
E 38 68 100
E 38 74 107
E 38 92 105
E 38 99 97
E 38 108 105
E 38 119 97
E 38 130 103
E 38 138 101
E 38 141 101
E 38 143 103
E 38 146 101
E 38 147 91
E 38 152 94
E 38 153 96
E 38 155 100
E 38 159 101
E 38 160 97
E 39 40 93
E 39 41 87
E 39 50 86
E 39 56 105
E 39 69 96
E 39 70 100
E 39 72 92
E 39 77 97
E 39 78 105
E 39 80 108
E 39 83 100
E 39 85 90
E 39 99 100
E 39 100 93
E 39 102 100
E 39 109 98
E 39 115 98
E 39 124 103
E 39 128 103
E 39 129 99
E 39 132 98
E 39 136 91
E 39 143 105
E 39 154 106
E 39 156 98
E 40 41 104
E 40 47 100
E 40 52 91
E 40 55 98
E 40 56 110
E 40 57 97
E 40 61 95
E 40 66 101
E 40 81 108
E 40 85 98
E 40 88 102
E 40 91 104
E 40 94 97
E 40 104 95
E 40 105 96
E 40 106 102
E 40 108 106
E 40 112 94
E 40 119 99
E 40 120 101
E 40 124 96
E 40 125 108
E 40 132 96
E 40 137 102
E 40 141 92
E 40 142 102
E 40 145 92
E 40 147 107
E 41 42 91
E 41 50 101
E 41 51 100
E 41 52 104
E 41 55 95
E 41 56 98
E 41 57 92
E 41 67 95
E 41 71 98
E 41 76 97
E 41 79 95
E 41 84 103
E 41 85 102
E 41 88 98
E 41 92 97
E 41 102 99
E 41 113 104
E 41 115 96
E 41 116 103
E 41 122 103
E 41 124 99
E 41 128 99
E 41 133 100
E 41 136 103
E 41 140 104
E 41 141 94
E 41 142 99
E 41 143 103
E 41 148 94
E 41 150 102
E 41 157 97
E 42 43 105
E 42 46 103
E 42 51 95
E 42 58 104
E 42 64 98
E 42 69 100
E 42 73 97
E 42 81 98
E 42 88 98
E 42 89 99
E 42 94 93
E 42 99 97
E 42 101 103
E 42 109 100
E 42 110 105
E 42 113 100
E 42 117 94
E 42 118 94
E 42 128 99
E 42 137 102
E 42 138 97
E 42 158 101
E 42 160 103
E 43 45 99
E 43 47 103
E 43 52 86
E 43 64 99
E 43 73 106
E 43 89 91
E 43 91 101
E 43 100 93
E 43 103 100
E 43 106 101
E 43 108 103
E 43 112 101
E 43 117 97
E 43 126 104
E 43 136 91
E 43 138 103
E 43 142 95
E 43 145 101
E 43 148 95
E 43 155 109
E 43 156 102
E 43 158 100
E 44 56 95
E 44 57 102
E 44 65 99
E 44 70 100
E 44 73 104
E 44 77 95
E 44 78 97
E 44 84 98
E 44 88 102
E 44 92 103
E 44 94 89
E 44 98 108
E 44 101 104
E 44 115 94
E 44 117 100
E 44 124 96
E 44 125 93
E 44 132 106
E 44 134 94
E 44 140 99
E 44 142 102
E 44 144 99
E 44 145 103
E 44 151 103
E 44 154 100
E 44 157 107
E 45 51 98
E 45 54 100
E 45 63 104
E 45 64 105
E 45 66 100
E 45 77 102
E 45 80 99
E 45 82 105
E 45 88 95
E 45 89 102
E 45 98 99
E 45 99 106
E 45 103 97
E 45 104 98
E 45 105 104
E 45 106 97
E 45 112 97
E 45 117 102
E 45 118 102
E 45 120 102
E 45 123 102
E 45 127 91
E 45 148 100
E 45 153 104
E 45 156 102
E 45 159 98
E 45 160 94
E 46 47 103
E 46 51 101
E 46 67 105
E 46 71 96
E 46 74 107
E 46 82 105
E 46 91 100
E 46 109 97
E 46 110 102
E 46 113 106
E 46 124 101
E 46 129 107
E 46 132 100
E 46 135 101
E 46 153 91
E 46 156 103
E 47 48 107
E 47 56 107
E 47 59 103
E 47 63 93
E 47 65 104
E 47 69 96
E 47 71 88
E 47 79 101
E 47 91 96
E 47 93 103
E 47 98 97
E 47 100 100
E 47 104 101
E 47 106 97
E 47 107 106
E 47 110 96
E 47 111 101
E 47 113 95
E 47 115 94
E 47 118 103
E 47 122 105
E 47 124 93
E 47 127 108
E 47 128 94
E 47 132 92
E 47 148 113
E 47 153 100
E 48 56 103
E 48 61 100
E 48 71 99
E 48 78 104
E 48 79 99
E 48 89 104
E 48 92 96
E 48 94 103
E 48 95 98
E 48 100 98
E 48 102 110
E 48 108 103
E 48 112 104
E 48 114 99
E 48 116 98
E 48 122 95
E 48 128 103
E 48 136 99
E 48 153 96
E 48 158 94
E 48 159 104
E 48 160 100
E 49 54 101
E 49 55 102
E 49 61 97
E 49 66 98
E 49 67 98
E 49 73 87
E 49 74 101
E 49 75 103
E 49 77 97
E 49 79 100
E 49 80 97
E 49 81 113
E 49 82 100
E 49 89 87
E 49 97 106
E 49 103 104
E 49 108 92
E 49 122 103
E 49 125 98
E 49 126 108
E 49 144 104
E 49 146 102
E 49 148 102
E 49 150 103
E 50 53 108
E 50 55 99
E 50 57 92
E 50 58 104
E 50 63 104
E 50 68 97
E 50 81 104
E 50 84 98
E 50 85 100
E 50 90 107
E 50 91 93
E 50 97 102
E 50 99 97
E 50 106 103
E 50 107 101
E 50 118 103
E 50 121 97
E 50 123 101
E 50 124 100
E 50 129 98
E 50 132 94
E 50 133 104
E 50 136 108
E 50 138 103
E 50 144 103
E 50 150 104
E 50 152 97
E 50 157 102
E 51 52 104
E 51 55 102
E 51 60 85
E 51 61 100
E 51 70 103
E 51 71 97
E 51 73 99
E 51 81 99
E 51 83 107
E 51 84 96
E 51 87 97
E 51 107 102
E 51 109 108
E 51 124 90
E 51 134 101
E 51 137 95
E 51 139 107
E 51 140 94
E 51 141 103
E 51 146 100
E 51 151 99
E 51 155 102
E 52 53 105
E 52 54 100
E 52 56 106
E 52 58 104
E 52 71 99
E 52 76 101
E 52 83 97
E 52 84 103
E 52 88 103
E 52 90 97
E 52 92 100
E 52 96 90
E 52 97 107
E 52 102 102
E 52 104 101
E 52 111 100
E 52 117 94
E 52 125 93
E 52 127 102
E 52 130 108
E 52 135 88
E 52 136 110
E 52 137 100
E 52 139 100
E 52 142 96
E 52 145 93
E 52 157 100
E 53 58 106
E 53 63 99
E 53 64 91
E 53 66 98
E 53 74 98
E 53 75 94
E 53 79 104
E 53 81 99
E 53 84 104
E 53 85 101
E 53 89 86
E 53 90 101
E 53 92 103
E 53 93 102
E 53 94 111
E 53 95 102
E 53 99 97
E 53 102 91
E 53 121 95
E 53 134 103
E 53 136 104
E 53 139 104
E 53 143 93
E 53 147 98
E 53 150 97
E 53 159 107
E 53 160 103
E 54 57 109
E 54 58 101
E 54 69 94
E 54 73 101
E 54 79 94
E 54 90 98
E 54 95 102
E 54 100 102
E 54 104 93
E 54 106 107
E 54 110 98
E 54 114 101
E 54 116 97
E 54 126 98
E 54 132 93
E 54 133 108
E 54 136 100
E 54 145 100
E 54 147 99
E 54 149 98
E 54 150 95
E 54 152 101
E 54 154 100
E 54 157 97
E 54 158 97
E 54 159 96
E 55 64 97
E 55 65 95
E 55 67 103
E 55 68 93
E 55 70 105
E 55 72 93
E 55 80 103
E 55 81 95
E 55 83 96
E 55 94 94
E 55 98 100
E 55 112 100
E 55 119 105
E 55 130 90
E 55 155 98
E 55 160 93
E 56 57 105
E 56 65 106
E 56 72 96
E 56 77 97
E 56 78 102
E 56 82 101
E 56 89 102
E 56 90 95
E 56 105 95
E 56 106 95
E 56 125 92
E 56 134 101
E 56 138 102
E 56 141 95
E 56 143 95
E 56 144 92
E 56 145 101
E 56 153 107
E 57 59 105
E 57 64 98
E 57 65 101
E 57 66 92
E 57 68 100
E 57 69 100
E 57 72 103
E 57 82 99
E 57 84 97
E 57 86 96
E 57 91 98
E 57 94 103
E 57 95 91
E 57 97 113
E 57 108 101
E 57 110 100
E 57 111 101
E 57 114 102
E 57 121 90
E 57 124 102
E 57 125 98
E 57 134 89
E 57 137 103
E 57 138 96
E 57 155 91
E 58 59 100
E 58 68 94
E 58 84 101
E 58 96 109
E 58 99 94
E 58 102 102
E 58 104 96
E 58 109 102
E 58 113 105
E 58 115 107
E 58 119 104
E 58 121 107
E 58 126 98
E 58 132 101
E 58 139 99
E 58 158 93
E 59 66 105
E 59 68 95
E 59 70 102
E 59 71 96
E 59 79 90
E 59 91 94
E 59 92 96
E 59 93 101
E 59 98 94
E 59 119 98
E 59 124 101
E 59 126 94
E 59 129 89
E 59 134 101
E 59 140 95
E 59 141 104
E 59 143 100
E 59 146 102
E 59 151 96
E 59 153 97
E 60 61 104
E 60 65 90
E 60 68 104
E 60 72 98
E 60 79 98
E 60 80 92
E 60 88 94
E 60 95 102
E 60 100 104
E 60 102 95
E 60 104 101
E 60 108 107
E 60 116 101
E 60 129 95
E 60 132 100
E 60 134 102
E 60 144 96
E 60 153 104
E 61 77 98
E 61 79 97
E 61 80 97
E 61 87 95
E 61 89 103
E 61 92 96
E 61 93 95
E 61 96 104
E 61 99 95
E 61 100 99
E 61 104 99
E 61 120 99
E 61 122 114
E 61 128 100
E 61 136 99
E 61 140 99
E 61 141 95
E 61 146 102
E 61 155 99
E 61 160 97
E 62 66 101
E 62 76 99
E 62 82 99
E 62 83 103
E 62 84 99
E 62 90 95
E 62 92 106
E 62 96 90
E 62 104 99
E 62 105 96
E 62 113 104
E 62 114 103
E 62 127 102
E 62 128 103
E 62 133 105
E 62 142 92
E 62 149 99
E 62 151 96
E 62 154 95
E 63 65 99
E 63 72 101
E 63 78 97
E 63 79 94
E 63 80 102
E 63 88 95
E 63 90 108
E 63 94 96
E 63 97 99
E 63 104 98
E 63 106 97
E 63 107 104
E 63 114 102
E 63 126 105
E 63 128 102
E 63 129 91
E 63 134 88
E 63 136 106
E 63 138 104
E 63 147 103
E 64 65 105
E 64 70 101
E 64 76 99
E 64 77 100
E 64 82 95
E 64 84 104
E 64 87 98
E 64 95 101
E 64 97 104
E 64 100 93
E 64 102 96
E 64 111 99
E 64 112 100
E 64 114 99
E 64 115 92
E 64 117 104
E 64 118 98
E 64 119 104
E 64 123 99
E 64 124 96
E 64 132 98
E 64 139 101
E 64 146 102
E 64 152 102
E 64 154 106
E 65 66 101
E 65 70 97
E 65 71 106
E 65 72 106
E 65 75 99
E 65 86 109
E 65 92 95
E 65 93 103
E 65 98 89
E 65 100 97
E 65 111 101
E 65 113 101
E 65 116 103
E 65 122 97
E 65 124 101
E 65 126 109
E 65 129 96
E 65 131 100
E 65 138 103
E 65 140 90
E 65 142 102
E 65 144 105
E 65 149 91
E 65 152 102
E 65 153 101
E 65 158 105
E 65 159 97
E 66 67 108
E 66 82 95
E 66 91 100
E 66 94 110
E 66 97 96
E 66 111 94
E 66 112 104
E 66 134 95
E 66 138 98
E 66 139 99
E 66 140 94
E 66 142 102
E 66 145 106
E 66 148 100
E 66 159 99
E 67 69 106
E 67 73 104
E 67 87 88
E 67 90 102
E 67 95 99
E 67 100 108
E 67 107 93
E 67 114 116
E 67 120 104
E 67 121 101
E 67 131 94
E 67 134 101
E 67 135 98
E 67 145 103
E 67 152 92
E 67 156 106
E 67 157 96
E 68 74 104
E 68 77 98
E 68 81 97
E 68 90 101
E 68 91 108
E 68 93 97
E 68 98 94
E 68 99 94
E 68 113 105
E 68 119 99
E 68 120 104
E 68 122 105
E 68 127 101
E 68 128 101
E 68 130 98
E 68 133 103
E 68 134 97
E 68 135 94
E 68 139 101
E 68 140 97
E 68 144 93
E 68 153 95
E 68 155 95
E 69 71 91
E 69 72 96
E 69 78 107
E 69 90 99
E 69 92 104
E 69 99 97
E 69 107 93
E 69 115 93
E 69 116 97
E 69 118 107
E 69 126 96
E 69 127 99
E 69 137 99
E 69 139 101
E 69 140 98
E 69 145 102
E 69 148 94
E 69 156 97
E 70 72 102
E 70 77 109
E 70 82 97
E 70 90 106
E 70 91 100
E 70 102 98
E 70 106 98
E 70 110 98
E 70 112 98
E 70 127 105
E 70 142 86
E 70 147 104
E 70 148 96
E 70 150 105
E 70 155 99
E 70 156 99
E 70 157 100
E 70 158 103
E 71 76 98
E 71 80 97
E 71 89 106
E 71 101 92
E 71 103 98
E 71 109 98
E 71 110 96
E 71 111 113
E 71 114 92
E 71 119 109
E 71 123 106
E 71 135 93
E 71 137 100
E 71 143 95
E 71 146 104
E 71 150 92
E 72 84 109
E 72 87 94
E 72 90 108
E 72 97 102
E 72 109 101
E 72 119 101
E 72 124 101
E 72 127 99
E 72 129 100
E 72 130 95
E 72 131 95
E 72 140 99
E 73 98 93
E 73 100 99
E 73 102 97
E 73 110 100
E 73 112 103
E 73 114 105
E 73 117 105
E 73 123 98
E 73 125 104
E 73 127 106
E 73 131 101
E 73 133 95
E 73 141 99
E 73 152 98
E 73 153 100
E 73 156 98
E 74 83 101
E 74 91 99
E 74 92 98
E 74 94 106
E 74 98 97
E 74 105 94
E 74 108 97
E 74 113 85
E 74 115 99
E 74 130 93
E 74 139 109
E 74 145 104
E 74 153 99
E 74 156 102
E 75 80 96
E 75 86 104
E 75 92 107
E 75 93 103
E 75 96 94
E 75 101 102
E 75 111 105
E 75 112 103
E 75 113 97
E 75 116 107
E 75 122 104
E 75 128 100
E 75 137 102
E 75 138 95
E 75 145 99
E 75 148 102
E 75 149 100
E 75 153 96
E 75 157 101
E 75 159 106
E 75 160 104
E 76 81 93
E 76 85 104
E 76 87 91
E 76 90 99
E 76 95 92
E 76 102 99
E 76 104 107
E 76 107 96
E 76 116 97
E 76 124 96
E 76 127 97
E 76 128 102
E 76 129 90
E 76 130 105
E 76 158 95
E 77 100 105
E 77 107 99
E 77 112 102
E 77 117 106
E 77 119 98
E 77 120 94
E 77 121 105
E 77 122 96
E 77 123 102
E 77 126 104
E 77 128 99
E 77 135 92
E 77 138 103
E 77 142 105
E 77 145 100
E 77 146 99
E 77 154 105
E 77 155 97
E 77 157 97
E 78 85 100
E 78 94 97
E 78 95 96
E 78 99 99
E 78 101 99
E 78 105 106
E 78 106 94
E 78 124 110
E 78 135 99
E 78 142 92
E 78 145 109
E 78 151 100
E 78 152 96
E 78 159 103
E 79 88 99
E 79 90 107
E 79 91 105
E 79 99 92
E 79 102 92
E 79 108 97
E 79 113 97
E 79 116 92
E 79 117 95
E 79 120 99
E 79 126 104
E 79 140 105
E 79 142 100
E 79 144 91
E 79 154 101
E 79 160 100
E 80 84 107
E 80 85 108
E 80 87 100
E 80 88 106
E 80 92 108
E 80 94 102
E 80 99 93
E 80 106 99
E 80 109 100
E 80 121 103
E 80 124 91
E 80 127 97
E 80 133 104
E 80 134 96
E 80 138 101
E 80 141 97
E 80 146 106
E 80 149 110
E 80 156 99
E 81 84 95
E 81 92 98
E 81 105 103
E 81 109 98
E 81 114 99
E 81 134 102
E 81 137 108
E 81 140 97
E 81 148 112
E 81 153 95
E 82 83 105
E 82 85 92
E 82 88 101
E 82 94 93
E 82 95 97
E 82 98 99
E 82 101 96
E 82 105 102
E 82 110 95
E 82 115 100
E 82 117 104
E 82 119 98
E 82 120 95
E 82 122 91
E 82 138 106
E 82 142 91
E 82 152 93
E 83 88 98
E 83 91 103
E 83 92 101
E 83 101 89
E 83 105 100
E 83 106 97
E 83 118 93
E 83 120 94
E 83 125 95
E 83 126 108
E 83 127 108
E 83 130 88
E 83 138 111
E 83 145 104
E 83 156 104
E 83 159 106
E 84 87 101
E 84 89 95
E 84 90 100
E 84 94 97
E 84 96 98
E 84 98 100
E 84 99 99
E 84 104 105
E 84 109 90
E 84 114 106
E 84 128 98
E 84 129 96
E 84 134 103
E 84 136 101
E 84 143 102
E 84 150 106
E 84 154 97
E 85 88 96
E 85 101 101
E 85 105 105
E 85 122 98
E 85 124 97
E 85 131 95
E 85 143 98
E 85 160 95
E 86 96 97
E 86 98 99
E 86 99 98
E 86 104 109
E 86 114 96
E 86 117 105
E 86 127 95
E 86 135 108
E 86 137 107
E 86 140 98
E 86 141 96
E 86 149 96
E 86 151 97
E 86 152 107
E 86 157 103
E 87 92 98
E 87 104 94
E 87 113 95
E 87 114 94
E 87 118 102
E 87 119 99
E 87 123 99
E 87 128 94
E 87 132 104
E 87 133 104
E 87 134 112
E 87 143 96
E 87 145 95
E 87 151 104
E 87 153 103
E 87 154 102
E 87 156 91
E 87 159 99
E 87 160 102
E 88 91 97
E 88 99 103
E 88 103 108
E 88 112 101
E 88 115 101
E 88 117 100
E 88 128 99
E 88 136 105
E 88 141 99
E 88 143 102
E 88 145 103
E 88 146 110
E 88 147 113
E 88 157 93
E 89 96 102
E 89 100 94
E 89 110 99
E 89 112 104
E 89 113 96
E 89 115 92
E 89 119 108
E 89 121 93
E 89 123 96
E 89 127 101
E 89 128 98
E 89 132 96
E 89 137 99
E 89 139 94
E 89 153 106
E 89 157 102
E 90 100 97
E 90 107 107
E 90 125 102
E 90 154 100
E 91 93 98
E 91 101 97
E 91 102 98
E 91 103 111
E 91 104 107
E 91 107 92
E 91 112 99
E 91 113 105
E 91 114 101
E 91 115 102
E 91 119 94
E 91 121 102
E 91 148 105
E 91 154 98
E 91 156 97
E 91 158 103
E 92 93 104
E 92 95 100
E 92 105 101
E 92 110 99
E 92 111 94
E 92 112 98
E 92 116 97
E 92 127 102
E 92 144 97
E 92 155 99
E 92 156 105
E 93 100 101
E 93 102 104
E 93 103 105
E 93 107 102
E 93 109 101
E 93 112 96
E 93 113 108
E 93 116 92
E 93 127 111
E 93 139 93
E 93 147 105
E 93 148 103
E 94 101 99
E 94 102 108
E 94 103 94
E 94 105 100
E 94 110 94
E 94 111 99
E 94 114 107
E 94 115 96
E 94 116 91
E 94 123 106
E 94 124 97
E 94 127 88
E 94 129 98
E 94 137 100
E 94 138 101
E 94 147 97
E 94 149 102
E 94 156 93
E 94 158 102
E 95 96 100
E 95 102 96
E 95 120 108
E 95 121 102
E 95 128 105
E 95 129 95
E 95 149 92
E 95 156 91
E 96 102 87
E 96 108 100
E 96 130 108
E 96 131 104
E 96 142 97
E 96 143 105
E 96 145 90
E 96 149 100
E 96 153 95
E 96 155 97
E 97 98 91
E 97 101 96
E 97 108 99
E 97 110 103
E 97 114 100
E 97 115 104
E 97 123 98
E 97 136 108
E 97 151 106
E 97 154 100
E 97 159 103
E 98 102 93
E 98 105 97
E 98 118 95
E 98 122 93
E 98 123 94
E 98 125 104
E 98 131 101
E 98 134 99
E 98 143 98
E 98 144 95
E 98 146 99
E 98 151 100
E 98 153 103
E 98 158 100
E 99 102 104
E 99 103 106
E 99 104 94
E 99 112 103
E 99 113 101
E 99 115 101
E 99 120 91
E 99 122 96
E 99 124 95
E 99 131 106
E 99 136 98
E 99 141 93
E 99 149 99
E 99 153 99
E 99 155 99
E 100 106 87
E 100 107 100
E 100 109 102
E 100 110 102
E 100 113 94
E 100 117 101
E 100 121 103
E 100 122 102
E 100 123 91
E 100 124 97
E 100 126 96
E 100 127 101
E 100 129 95
E 100 130 97
E 100 132 104
E 100 143 101
E 100 145 104
E 100 147 109
E 100 154 93
E 100 155 86
E 100 158 103
E 101 104 95
E 101 108 107
E 101 116 98
E 101 127 97
E 101 128 93
E 101 133 94
E 101 151 106
E 102 104 91
E 102 108 101
E 102 121 91
E 102 126 82
E 102 129 97
E 102 138 94
E 102 148 103
E 102 153 103
E 103 104 97
E 103 107 100
E 103 110 104
E 103 111 99
E 103 113 96
E 103 115 101
E 103 118 103
E 103 120 100
E 103 122 104
E 103 126 97
E 103 134 99
E 103 150 98
E 103 154 100
E 103 156 103
E 103 157 92
E 103 160 103
E 104 110 91
E 104 111 97
E 104 118 88
E 104 122 100
E 104 123 93
E 104 125 101
E 104 135 100
E 104 145 99
E 104 157 97
E 105 110 89
E 105 113 111
E 105 114 97
E 105 117 94
E 105 123 97
E 105 127 92
E 105 133 93
E 105 136 97
E 105 137 102
E 105 142 102
E 105 159 104
E 106 108 100
E 106 112 99
E 106 116 98
E 106 134 104
E 106 135 99
E 106 142 91
E 106 147 93
E 106 151 95
E 106 152 95
E 106 157 106
E 107 110 96
E 107 116 97
E 107 124 98
E 107 127 109
E 107 129 95
E 107 131 103
E 107 132 105
E 107 136 100
E 107 141 97
E 107 142 101
E 107 145 97
E 107 160 92
E 108 112 100
E 108 114 101
E 108 116 105
E 108 121 110
E 108 127 98
E 108 131 96
E 108 132 109
E 108 143 90
E 108 144 98
E 108 147 100
E 108 152 95
E 108 153 107
E 108 159 103
E 109 113 107
E 109 114 100
E 109 133 92
E 109 141 99
E 109 144 101
E 109 149 100
E 109 159 107
E 110 117 100
E 110 121 95
E 110 122 95
E 110 123 103
E 110 130 111
E 110 131 106
E 110 135 92
E 110 136 96
E 110 137 105
E 110 157 104
E 110 158 93
E 111 114 94
E 111 122 97
E 111 127 101
E 111 132 96
E 111 133 103
E 111 142 98
E 111 145 106
E 111 147 105
E 111 148 94
E 111 150 95
E 111 152 99
E 111 155 98
E 112 140 98
E 112 146 101
E 112 148 100
E 112 154 96
E 112 159 104
E 112 160 104
E 113 117 96
E 113 118 102
E 113 125 95
E 113 128 110
E 113 129 108
E 113 130 105
E 113 131 100
E 113 133 90
E 113 136 99
E 113 144 103
E 113 145 98
E 113 149 100
E 113 153 97
E 113 155 104
E 114 115 93
E 114 116 102
E 114 119 93
E 114 132 102
E 114 133 98
E 114 136 102
E 114 137 106
E 114 138 100
E 114 143 93
E 114 154 105
E 114 157 103
E 114 159 102
E 115 117 99
E 115 118 100
E 115 120 111
E 115 128 95
E 115 129 94
E 115 137 94
E 115 142 109
E 115 157 110
E 115 160 100
E 116 117 102
E 116 122 93
E 116 128 104
E 116 134 105
E 116 140 112
E 116 141 104
E 116 144 96
E 116 145 104
E 116 147 99
E 116 151 99
E 116 152 105
E 117 125 96
E 117 130 93
E 117 131 98
E 117 150 96
E 117 152 99
E 117 159 95
E 117 160 105
E 118 122 100
E 118 125 102
E 118 127 98
E 118 128 99
E 118 130 99
E 118 136 101
E 118 137 98
E 119 124 95
E 119 125 96
E 119 133 95
E 119 143 104
E 119 144 106
E 119 145 99
E 119 151 104
E 119 157 103
E 119 159 100
E 120 124 97
E 120 127 99
E 120 129 97
E 120 138 96
E 120 145 98
E 120 152 103
E 121 124 100
E 121 127 97
E 121 135 96
E 121 136 99
E 121 141 105
E 121 147 94
E 121 149 102
E 121 150 105
E 121 154 96
E 122 130 93
E 122 138 97
E 122 148 101
E 122 149 97
E 122 154 99
E 123 125 102
E 123 131 99
E 123 134 102
E 123 137 103
E 123 141 94
E 123 142 102
E 123 144 98
E 123 149 102
E 124 127 104
E 124 129 95
E 124 133 111
E 124 137 100
E 124 139 92
E 124 144 97
E 124 151 99
E 125 126 100
E 125 128 103
E 125 130 105
E 125 137 105
E 125 142 98
E 125 143 94
E 125 144 99
E 125 147 94
E 125 148 99
E 125 154 95
E 125 157 100
E 126 132 98
E 126 138 101
E 126 147 99
E 126 148 100
E 126 151 95
E 126 159 105
E 127 129 93
E 127 131 106
E 127 133 105
E 127 138 97
E 127 142 90
E 127 146 97
E 127 147 103
E 127 150 86
E 127 154 108
E 128 137 112
E 128 147 99
E 128 149 98
E 128 153 98
E 129 132 104
E 129 136 98
E 129 137 100
E 129 143 105
E 129 146 94
E 129 147 94
E 129 149 100
E 129 153 95
E 130 139 103
E 130 140 100
E 130 141 111
E 130 149 101
E 130 153 102
E 130 156 106
E 131 132 101
E 131 141 105
E 131 145 109
E 131 159 92
E 131 160 101
E 132 133 92
E 132 138 93
E 132 140 95
E 132 141 101
E 132 143 102
E 132 144 102
E 132 151 96
E 132 152 100
E 133 142 113
E 133 143 107
E 134 135 102
E 134 137 98
E 134 141 99
E 134 149 92
E 134 158 102
E 135 138 93
E 135 139 114
E 135 140 105
E 135 144 98
E 135 145 104
E 135 160 100
E 136 138 94
E 136 139 108
E 136 142 98
E 136 144 96
E 136 146 98
E 136 148 99
E 136 151 99
E 136 160 94
E 137 144 92
E 137 155 103
E 138 146 95
E 138 148 102
E 139 144 96
E 139 145 101
E 139 150 101
E 139 154 99
E 139 155 95
E 139 158 102
E 140 146 103
E 140 149 103
E 140 151 96
E 140 155 91
E 141 157 96
E 142 143 103
E 142 145 89
E 142 153 97
E 142 157 92
E 143 144 98
E 143 147 96
E 143 151 109
E 143 152 99
E 143 158 100
E 144 145 96
E 144 152 101
E 144 156 94
E 144 159 103
E 145 146 96
E 145 149 108
E 145 152 98
E 145 153 103
E 145 158 97
E 146 147 100
E 146 158 97
E 146 160 112
E 147 148 104
E 147 149 103
E 147 152 96
E 148 150 102
E 148 152 102
E 149 154 91
E 150 151 100
E 151 156 94
E 152 153 97
E 152 157 104
E 153 154 103
E 156 158 98
END

SECTION Terminals
Terminals 24
T 1
T 2
T 3
T 4
T 5
T 6
T 7
T 8
T 9
T 10
T 11
T 12
T 13
T 14
T 15
T 16
T 17
T 18
T 19
T 20
T 21
T 22
T 23
T 24
END

EOF
